33D32945 STP File, STP Format Version 1.0

SECTION Comments
Name "inst10x3_05"
Creator "Kurt Anstreicher & Marcia Fampa"
Problem "Euclidean Steiner Tree Problem"
Remark "Converted automatically"
END

SECTION Graph
Nodes 10
END

SECTION Coordinates
DDD 1 2.97405678959259 0.49162489096086 6.93180453256085 
DDD 2 6.50106409912471 9.82987782046427 5.52673243443625 
DDD 3 4.00073515840524 1.98788519777836 6.25201022867322 
DDD 4 7.33362801891435 3.75885481683137 0.09876462898786 
DDD 5 4.19857806310219 7.53669625813587 7.93871774732319 
DDD 6 9.19957206695871 8.44721501908175 3.67752882468284 
DDD 7 6.20801331821144 7.31277264466345 1.93893179984668 
DDD 8 9.04812334166357 5.69205749671747 6.31789929221756 
DDD 9 2.34412955408254 5.48782125538588 9.31583352579691 
DDD 10 3.35197430206395 6.55531055012014 3.91904206889003 
END

EOF
